5 5
4 91 3 14 0 59 1 12 2 23
3 85 1 72 2 39 0 9 4 88
4 95 3 25 0 17 1 42 2 29
3 60 4 67 0 85 2 57 1 72
4 14 0 39 2 16 1 18 3 95
-1
0 1 2 4 5
0 3 5
0 3 5
0 2 3 4 5
0 1 2 3 5
-2
104 133 188 203
260 390
182 325
134 292 399 511
19 78 70 231

422 8
21 17 12 8 2
23 6 13 19 3
22 7 18 14 4
15 5 11 1 24
20 16 10 0 9
